Solver command line: ['C:\\Program Files\\IBM\\ILOG\\CPLEX_Studio221\\cplex\\bin\\x64_win64\\cplex.exe']


Welcome to IBM(R) ILOG(R) CPLEX(R) Interactive Optimizer 22.1.0.0
  with Simplex, Mixed Integer & Barrier Optimizers
5725-A06 5725-A29 5724-Y48 5724-Y49 5724-Y54 5724-Y55 5655-Y21
Copyright IBM Corp. 1988, 2022.  All Rights Reserved.

Type 'help' for a list of available commands.
Type 'help' followed by a command name for more
information on commands.

CPLEX> Logfile 'cplex.log' closed.
Logfile 'data\50_bus\3.5_trips_per_bus\3_7_2\step1.log' open.
CPLEX> New value for mixed integer solutions limit: 1
CPLEX> New value for time limit in seconds: 3601
CPLEX> New value for default parallel thread count: 1
CPLEX> Problem 'C:\Users\Mathis\AppData\Local\Temp\tmpjm8u730c.pyomo.lp' read.
Read time = 0.22 sec. (21.61 ticks)
CPLEX> Problem name         : C:\Users\Mathis\AppData\Local\Temp\tmpjm8u730c.pyomo.lp
Objective sense      : Minimize
Variables            :  100184  [Nneg: 44278,  Binary: 55906]
Objective nonzeros   :   55809
Linear constraints   :  173657  [Less: 167381,  Greater: 1725,  Equal: 4551]
  Nonzeros           :  673425
  RHS nonzeros       :  130374

Variables            : Min LB: 0.000000         Max UB: 1.000000       
Objective nonzeros   : Min   : 1.000000         Max   : 423801.0       
Linear constraints   :
  Nonzeros           : Min   : 0.2192982        Max   : 4723.000       
  RHS nonzeros       : Min   : 1.000000         Max   : 4543.000       
CPLEX> Version identifier: 22.1.0.0 | 2022-03-09 | 1a383f8ce
CPXPARAM_Threads                                 1
CPXPARAM_MIP_Limits_Solutions                    1
CPXPARAM_TimeLimit                               3601
Tried aggregator 4 times.
MIP Presolve eliminated 12648 rows and 2340 columns.
MIP Presolve modified 114 coefficients.
Aggregator did 575 substitutions.
Reduced MIP has 160434 rows, 97269 columns, and 636485 nonzeros.
Reduced MIP has 54501 binaries, 0 generals, 0 SOSs, and 0 indicators.
Presolve time = 0.75 sec. (830.06 ticks)
Probing fixed 199 vars, tightened 831 bounds.
Probing time = 2.11 sec. (1980.18 ticks)
Tried aggregator 2 times.
Detecting symmetries...
MIP Presolve eliminated 3830 rows and 3975 columns.
MIP Presolve modified 96326 coefficients.
Aggregator did 1 substitutions.
Reduced MIP has 156603 rows, 93293 columns, and 623242 nonzeros.
Reduced MIP has 54301 binaries, 566 generals, 0 SOSs, and 0 indicators.
Presolve time = 0.81 sec. (852.86 ticks)
Probing fixed 155 vars, tightened 482 bounds.
Probing time = 1.34 sec. (524.47 ticks)
Clique table members: 328858.
MIP emphasis: balance optimality and feasibility.
MIP search method: dynamic search.
Parallel mode: none, using 1 thread.
Root relaxation solution time = 62.20 sec. (57186.90 ticks)

        Nodes                                         Cuts/
   Node  Left     Objective  IInf  Best Integer    Best Bound    ItCnt     Gap

      0     0   2.37666e+07   671                 2.37666e+07   108975         
      0     0   2.37666e+07   569                   Cuts: 827   113049         
      0     0   2.37666e+07   557                   Cuts: 304   114585         
      0     0   2.37666e+07   524                   Cuts: 124   114951         
      0     0   2.37666e+07   526                   Cuts: 140   115220         
      0     0   2.37666e+07   512                    Cuts: 90   115335         
Detecting symmetries...
      0     0   2.37666e+07   520                    Cuts: 85   115413         
Detecting symmetries...
      0     2   2.37666e+07   520                 2.37666e+07   115413         
Elapsed time = 142.25 sec. (144930.21 ticks, tree = 0.01 MB, solutions = 0)
      2     4   2.37666e+07   619                 2.37666e+07   131106         
      6     8   2.37666e+07   494                 2.37666e+07   131187         
      7     9   2.37666e+07   527                 2.37666e+07   134053         
      9    11   2.37666e+07   495                 2.37666e+07   134748         
     10    12   2.37666e+07   491                 2.37666e+07   135290         
     11    13   2.37666e+07   483                 2.37666e+07   136419         
     13    15   2.37666e+07   482                 2.37666e+07   136618         
     15    17   2.37666e+07   468                 2.37666e+07   137091         
     17    19   2.37666e+07   464                 2.37666e+07   137480         
     20    22   2.37666e+07   454                 2.37666e+07   138174         
Elapsed time = 181.47 sec. (182903.04 ticks, tree = 5.67 MB, solutions = 0)
     21    23   2.37666e+07   450                 2.37666e+07   139731         
     36    38   2.37666e+07   387                 2.37666e+07   140191         
     39    41   2.37666e+07   378                 2.37666e+07   141051         
     41    43   2.37666e+07   389                 2.37666e+07   146141         
     43    45   2.37666e+07   372                 2.37666e+07   147558         
     45    47   2.37666e+07   354                 2.37666e+07   148659         
     50    52   2.37666e+07   334                 2.37666e+07   148709         
     63    65   2.37666e+07   296                 2.37666e+07   149487         
     70    72   2.37667e+07   280                 2.37666e+07   149791         
     80    82   2.37667e+07   272                 2.37666e+07   151159         
Elapsed time = 193.53 sec. (198914.38 ticks, tree = 8.57 MB, solutions = 0)
     86    88   2.37667e+07   278                 2.37666e+07   152583         
     91    91   2.37667e+07   251                 2.37666e+07   152876         
     96    94   2.37667e+07   264                 2.37666e+07   155221         
    100    98   2.37667e+07   248                 2.37666e+07   155705         
    101    99   2.37667e+07   250                 2.37666e+07   156530         
    109   105   2.37667e+07   234                 2.37666e+07   157345         
    110   106   2.37667e+07   258                 2.37666e+07   157365         
    117   109   2.37667e+07   241                 2.37666e+07   158412         
    122   112   2.37667e+07   240                 2.37666e+07   158897         
    131   119   2.37667e+07   245                 2.37666e+07   159941         
Elapsed time = 218.05 sec. (223009.82 ticks, tree = 10.38 MB, solutions = 0)
    136   122   2.37667e+07   250                 2.37666e+07   161105         
    140   126   2.37667e+07   233                 2.37666e+07   161228         
    147   133   2.37671e+07   228                 2.37666e+07   162976         
    151   137   2.37667e+07   220                 2.37666e+07   164320         
    155   141   2.37668e+07   232                 2.37666e+07   165852         
    158   144   2.37667e+07   247                 2.37666e+07   170315         
    163   149   2.37668e+07   215                 2.37666e+07   172168         
    172   158   2.37668e+07   206                 2.37666e+07   173299         
    178   164   2.37669e+07   194                 2.37666e+07   175122         
    180   166   2.37669e+07   190                 2.37666e+07   175141         
Elapsed time = 236.41 sec. (242252.56 ticks, tree = 12.86 MB, solutions = 0)
    186   172   2.37669e+07   189                 2.37666e+07   176658         
    189   175   2.37670e+07   193                 2.37666e+07   178018         
    190   176   2.37669e+07   192                 2.37666e+07   178943         
    194   180   2.37669e+07   209                 2.37666e+07   184490         
    197   183   2.37670e+07   187                 2.37666e+07   185460         
    200   186   2.37673e+07   192                 2.37666e+07   187384         
    207   193   2.37669e+07   179                 2.37666e+07   188392         
    210   196   2.37669e+07   174                 2.37666e+07   189438         
    214   200   2.37669e+07   169                 2.37666e+07   191169         
    219   205   2.37669e+07   168                 2.37666e+07   191717         
Elapsed time = 253.55 sec. (259749.71 ticks, tree = 14.98 MB, solutions = 0)
    224   210   2.37670e+07   151                 2.37666e+07   192457         
    227   213   2.37669e+07   155                 2.37666e+07   193530         
    229   215   2.37672e+07   147                 2.37666e+07   194971         
    234   220   2.37672e+07   157                 2.37666e+07   196164         
    240   226   2.37669e+07   139                 2.37666e+07   196819         
    246   232   2.37669e+07   132                 2.37666e+07   197858         
    250   234   2.37669e+07   136                 2.37666e+07   198705         
    260   244   2.37669e+07   119                 2.37666e+07   199419         
    267   251   2.37672e+07   127                 2.37666e+07   201076         
    272   256   2.37670e+07   117                 2.37666e+07   203270         
Elapsed time = 264.94 sec. (271158.63 ticks, tree = 17.92 MB, solutions = 0)
    282   266   2.37669e+07   118                 2.37666e+07   204060         
*   300+  203                       2.37669e+07   2.37666e+07             0.00%

Clique cuts applied:  84
Implied bound cuts applied:  66
Flow cuts applied:  164
Mixed integer rounding cuts applied:  330
Zero-half cuts applied:  2
Lift and project cuts applied:  5
Gomory fractional cuts applied:  45

Root node processing (before b&c):
  Real time             =  140.22 sec. (143125.65 ticks)
Sequential b&c:
  Real time             =  126.39 sec. (130388.73 ticks)
                          ------------
Total (root+branch&cut) =  266.61 sec. (273514.38 ticks)

Solution pool: 1 solution saved.

MIP - Integer optimal, tolerance (0.0001/1e-06):  Objective =  2.3766926000e+07
Current MIP best bound =  2.3766582000e+07 (gap = 344, 0.00%)
Solution time =  266.61 sec.  Iterations = 204587  Nodes = 300 (202)
Deterministic time = 273514.66 ticks  (1025.90 ticks/sec)

CPLEX> Incumbent solution written to file 'C:\Users\Mathis\AppData\Local\Temp\tmpu8jdhal3.cplex.sol'.
CPLEX> 
